
  32    4
  10   10   10   10

   0   0   0   0   0  12 2 3 4 5 6 8 11 12 28 29 30 31 
  10   0   1   4   1   9 27 20 19 18 17 16 15 13 9 
   9   1   4   0   9   5 24 23 16 15 7 
   2   4   3   4   0   8 24 23 22 21 20 18 16 15 
   1   4   5   7   0   8 26 25 22 21 20 17 15 14 
   5   5   0   2   3   4 19 16 14 10 
   3   0   4   2   6   4 18 17 14 13 
   7   0   7   2   4   4 19 18 17 16 
   5   1   4   4   0   1 14 
   6   9   5   3   0   1 13 
   5   2   0   4   3   1 15 
   4   0   6   1   4   1 13 
   4   4   6   5   0   1 32
   8   6   2   0   5   1 32
   9   2   0   7   2   1 32
   6   3   0   2   4   1 32
   5   3   5   0   3   1 32
   7   5   2  10   0   1 32
  10   0   4   3   3   1 32
  10   7   4   0   4   1 32
   6   0   3   2   3   1 32
   9   5   6   0   7   1 32
   9   3   2   5   0   1 32
   1   4   3   0   6   1 32
   7   5   0   6   5   1 32
   7   4   7   0   5   1 32
  10   4   0   3   1   1 32
   6   0   1   4   5   1 32
   2   0   3   4   2   1 32
   5   4   5   0   3   1 32
   7   3   4   4   0   1 32
   0   0   0   0   0   0 
